100 10
64 597
855 621
226 621
576 414
271 403
715 671
135 323
725 693
510 256
108 577
854 446
743 843
602 740
259 365
696 510
647 592
224 363
853 760
170 288
440 448
653 812
487 329
605 722
690 434
413 387
710 625
81 622
406 781
88 609
114 289
276 153
85 380
469 516
434 547
810 578
542 712
383 604
385 419
880 637
572 537
296 626
778 774
234 343
557 438
617 810
398 610
571 656
720 712
385 61
607 452
465 395
862 634
107 307
782 454
111 685
433 372
421 789
872 346
397 535
476 676
459 173
630 403
409 533
149 274
576 452
746 460
756 564
851 529
864 642
417 450
767 681
421 140
446 346
929 444
378 352
398 791
615 785
695 259
837 579
349 30
466 241
510 458
501 389
375 184
629 616
860 443
631 375
733 683
504 342
382 249
492 727
126 795
512 629
617 240
142 600
487 504
665 462
386 650
794 395
165 743
